Problem:    containers
Rows:       20
Columns:    64 (64 integer, 64 binary)
Non-zeros:  128
Status:     INTEGER OPTIMAL
Objective:  utilizzoContainers = 3 (MINimum)

   No.   Row name        Activity     Lower bound   Upper bound
------ ------------    ------------- ------------- -------------
     1 vincoloOggetti[1]
                                   1             1             = 
     2 vincoloOggetti[2]
                                   1             1             = 
     3 vincoloOggetti[3]
                                   1             1             = 
     4 vincoloOggetti[4]
                                   1             1             = 
     5 vincoloOggetti[5]
                                   1             1             = 
     6 vincoloOggetti[6]
                                   1             1             = 
     7 vincoloOggetti[7]
                                   1             1             = 
     8 vincoloOggetti[8]
                                   1             1             = 
     9 vincoloOggetti[9]
                                   1             1             = 
    10 vincoloOggetti[10]
                                   1             1             = 
    11 vincoloOggetti[11]
                                   1             1             = 
    12 vincoloOggetti[12]
                                   1             1             = 
    13 vincoloOggetti[13]
                                   1             1             = 
    14 vincoloOggetti[14]
                                   1             1             = 
    15 vincoloOggetti[15]
                                   1             1             = 
    16 vincoloCapacita[1]
                                   0                          -0 
    17 vincoloCapacita[2]
                                   0                          -0 
    18 vincoloCapacita[3]
                                   0                          -0 
    19 vincoloCapacita[4]
                                   0                          -0 
    20 utilizzoContainers
                                   3                             

   No. Column name       Activity     Lower bound   Upper bound
------ ------------    ------------- ------------- -------------
     1 x[1]         *              1             0             1 
     2 x[2]         *              1             0             1 
     3 x[3]         *              0             0             1 
     4 x[4]         *              1             0             1 
     5 y[1,1]       *              1             0             1 
     6 y[1,2]       *              0             0             1 
     7 y[1,3]       *              0             0             1 
     8 y[1,4]       *              0             0             1 
     9 y[2,1]       *              0             0             1 
    10 y[2,2]       *              0             0             1 
    11 y[2,3]       *              0             0             1 
    12 y[2,4]       *              1             0             1 
    13 y[3,1]       *              1             0             1 
    14 y[3,2]       *              0             0             1 
    15 y[3,3]       *              0             0             1 
    16 y[3,4]       *              0             0             1 
    17 y[4,1]       *              0             0             1 
    18 y[4,2]       *              0             0             1 
    19 y[4,3]       *              0             0             1 
    20 y[4,4]       *              1             0             1 
    21 y[5,1]       *              0             0             1 
    22 y[5,2]       *              0             0             1 
    23 y[5,3]       *              0             0             1 
    24 y[5,4]       *              1             0             1 
    25 y[6,1]       *              0             0             1 
    26 y[6,2]       *              0             0             1 
    27 y[6,3]       *              0             0             1 
    28 y[6,4]       *              1             0             1 
    29 y[7,1]       *              0             0             1 
    30 y[7,2]       *              1             0             1 
    31 y[7,3]       *              0             0             1 
    32 y[7,4]       *              0             0             1 
    33 y[8,1]       *              1             0             1 
    34 y[8,2]       *              0             0             1 
    35 y[8,3]       *              0             0             1 
    36 y[8,4]       *              0             0             1 
    37 y[9,1]       *              0             0             1 
    38 y[9,2]       *              1             0             1 
    39 y[9,3]       *              0             0             1 
    40 y[9,4]       *              0             0             1 
    41 y[10,1]      *              1             0             1 
    42 y[10,2]      *              0             0             1 
    43 y[10,3]      *              0             0             1 
    44 y[10,4]      *              0             0             1 
    45 y[11,1]      *              0             0             1 
    46 y[11,2]      *              1             0             1 
    47 y[11,3]      *              0             0             1 
    48 y[11,4]      *              0             0             1 
    49 y[12,1]      *              0             0             1 
    50 y[12,2]      *              0             0             1 
    51 y[12,3]      *              0             0             1 
    52 y[12,4]      *              1             0             1 
    53 y[13,1]      *              0             0             1 
    54 y[13,2]      *              1             0             1 
    55 y[13,3]      *              0             0             1 
    56 y[13,4]      *              0             0             1 
    57 y[14,1]      *              0             0             1 
    58 y[14,2]      *              1             0             1 
    59 y[14,3]      *              0             0             1 
    60 y[14,4]      *              0             0             1 
    61 y[15,1]      *              0             0             1 
    62 y[15,2]      *              1             0             1 
    63 y[15,3]      *              0             0             1 
    64 y[15,4]      *              0             0             1 

Integer feasibility conditions:

KKT.PE: max.abs.err = 0.00e+00 on row 0
        max.rel.err = 0.00e+00 on row 0
        High quality

KKT.PB: max.abs.err = 0.00e+00 on row 0
        max.rel.err = 0.00e+00 on row 0
        High quality

End of output
